c nIsolatedPIs 0
c maxPI 32
p cnf 230 595
c gate 33 -8 -24 0
-8 -33 0
-24 -33 0
8 24 33 0
c gate 34 8 24 0
8 -34 0
24 -34 0
-8 -24 34 0
c gate 35 -33 -34 0
-33 -35 0
-34 -35 0
33 34 35 0
c gate 36 -7 -23 0
-7 -36 0
-23 -36 0
7 23 36 0
c gate 37 7 23 0
7 -37 0
23 -37 0
-7 -23 37 0
c gate 38 -36 -37 0
-36 -38 0
-37 -38 0
36 37 38 0
c gate 39 -6 -22 0
-6 -39 0
-22 -39 0
6 22 39 0
c gate 40 -5 -21 0
-5 -40 0
-21 -40 0
5 21 40 0
c gate 41 -4 -20 0
-4 -41 0
-20 -41 0
4 20 41 0
c gate 42 -40 -41 0
-40 -42 0
-41 -42 0
40 41 42 0
c gate 43 1 17 0
1 -43 0
17 -43 0
-1 -17 43 0
c gate 44 2 18 0
2 -44 0
18 -44 0
-2 -18 44 0
c gate 45 -43 -44 0
-43 -45 0
-44 -45 0
43 44 45 0
c gate 46 -3 19 0
-3 -46 0
19 -46 0
3 -19 46 0
c gate 47 3 -19 0
3 -47 0
-19 -47 0
-3 19 47 0
c gate 48 -46 -47 0
-46 -48 0
-47 -48 0
46 47 48 0
c gate 49 -2 -18 0
-2 -49 0
-18 -49 0
2 18 49 0
c gate 50 -48 -49 0
-48 -50 0
-49 -50 0
48 49 50 0
c gate 51 -45 50 0
-45 -51 0
50 -51 0
45 -50 51 0
c gate 52 3 19 0
3 -52 0
19 -52 0
-3 -19 52 0
c gate 53 4 20 0
4 -53 0
20 -53 0
-4 -20 53 0
c gate 54 -52 -53 0
-52 -54 0
-53 -54 0
52 53 54 0
c gate 55 -51 54 0
-51 -55 0
54 -55 0
51 -54 55 0
c gate 56 42 -55 0
42 -56 0
-55 -56 0
-42 55 56 0
c gate 57 6 22 0
6 -57 0
22 -57 0
-6 -22 57 0
c gate 58 -39 -57 0
-39 -58 0
-57 -58 0
39 57 58 0
c gate 59 5 21 0
5 -59 0
21 -59 0
-5 -21 59 0
c gate 60 58 -59 0
58 -60 0
-59 -60 0
-58 59 60 0
c gate 61 -56 60 0
-56 -61 0
60 -61 0
56 -60 61 0
c gate 62 -39 -61 0
-39 -62 0
-61 -62 0
39 61 62 0
c gate 63 38 -62 0
38 -63 0
-62 -63 0
-38 62 63 0
c gate 64 35 63 0
35 -64 0
63 -64 0
-35 -63 64 0
c gate 65 -61 -63 0
-61 -65 0
-63 -65 0
61 63 65 0
c gate 66 43 44 0
43 -66 0
44 -66 0
-43 -44 66 0
c gate 67 65 66 0
65 -67 0
66 -67 0
-65 -66 67 0
c gate 68 -64 -67 0
-64 -68 0
-67 -68 0
64 67 68 0
c gate 69 -11 -27 0
-11 -69 0
-27 -69 0
11 27 69 0
c gate 70 12 28 0
12 -70 0
28 -70 0
-12 -28 70 0
c gate 71 -12 -28 0
-12 -71 0
-28 -71 0
12 28 71 0
c gate 72 -70 -71 0
-70 -72 0
-71 -72 0
70 71 72 0
c gate 73 -69 72 0
-69 -73 0
72 -73 0
69 -72 73 0
c gate 74 9 25 0
9 -74 0
25 -74 0
-9 -25 74 0
c gate 75 -34 -74 0
-34 -75 0
-74 -75 0
34 74 75 0
c gate 76 -33 -36 0
-33 -76 0
-36 -76 0
33 36 76 0
c gate 77 -63 76 0
-63 -77 0
76 -77 0
63 -76 77 0
c gate 78 75 -77 0
75 -78 0
-77 -78 0
-75 77 78 0
c gate 79 -10 -26 0
-10 -79 0
-26 -79 0
10 26 79 0
c gate 80 -9 -25 0
-9 -80 0
-25 -80 0
9 25 80 0
c gate 81 -79 -80 0
-79 -81 0
-80 -81 0
79 80 81 0
c gate 82 -78 81 0
-78 -82 0
81 -82 0
78 -81 82 0
c gate 83 10 26 0
10 -83 0
26 -83 0
-10 -26 83 0
c gate 84 11 27 0
11 -84 0
27 -84 0
-11 -27 84 0
c gate 85 -83 -84 0
-83 -85 0
-84 -85 0
83 84 85 0
c gate 86 -82 85 0
-82 -86 0
85 -86 0
82 -85 86 0
c gate 87 73 -86 0
73 -87 0
-86 -87 0
-73 86 87 0
c gate 88 -13 -29 0
-13 -88 0
-29 -88 0
13 29 88 0
c gate 89 13 29 0
13 -89 0
29 -89 0
-13 -29 89 0
c gate 90 -88 -89 0
-88 -90 0
-89 -90 0
88 89 90 0
c gate 91 -70 -87 0
-70 -91 0
-87 -91 0
70 87 91 0
c gate 92 -90 -91 0
-90 -92 0
-91 -92 0
90 91 92 0
c gate 93 -87 -92 0
-87 -93 0
-92 -93 0
87 92 93 0
c gate 94 68 93 0
68 -94 0
93 -94 0
-68 -93 94 0
c gate 95 75 -76 0
75 -95 0
-76 -95 0
-75 76 95 0
c gate 96 73 81 0
73 -96 0
81 -96 0
-73 -81 96 0
c gate 97 -95 96 0
-95 -97 0
96 -97 0
95 -96 97 0
c gate 98 86 97 0
86 -98 0
97 -98 0
-86 -97 98 0
c gate 99 64 -98 0
64 -99 0
-98 -99 0
-64 98 99 0
c gate 100 93 -99 0
93 -100 0
-99 -100 0
-93 99 100 0
c gate 101 16 32 0
16 -101 0
32 -101 0
-16 -32 101 0
c gate 102 -16 -32 0
-16 -102 0
-32 -102 0
16 32 102 0
c gate 103 -101 -102 0
-101 -103 0
-102 -103 0
101 102 103 0
c gate 104 -15 -31 0
-15 -104 0
-31 -104 0
15 31 104 0
c gate 105 15 31 0
15 -105 0
31 -105 0
-15 -31 105 0
c gate 106 -14 -30 0
-14 -106 0
-30 -106 0
14 30 106 0
c gate 107 14 30 0
14 -107 0
30 -107 0
-14 -30 107 0
c gate 108 -106 -107 0
-106 -108 0
-107 -108 0
106 107 108 0
c gate 109 -88 -91 0
-88 -109 0
-91 -109 0
88 91 109 0
c gate 110 -89 -109 0
-89 -110 0
-109 -110 0
89 109 110 0
c gate 111 108 110 0
108 -111 0
110 -111 0
-108 -110 111 0
c gate 112 -106 -111 0
-106 -112 0
-111 -112 0
106 111 112 0
c gate 113 -105 -112 0
-105 -113 0
-112 -113 0
105 112 113 0
c gate 114 -104 -113 0
-104 -114 0
-113 -114 0
104 113 114 0
c gate 115 103 -114 0
103 -115 0
-114 -115 0
-103 114 115 0
c gate 116 -103 114 0
-103 -116 0
114 -116 0
103 -114 116 0
c gate 117 -115 -116 0
-115 -117 0
-116 -117 0
115 116 117 0
c gate 118 -70 -89 0
-70 -118 0
-89 -118 0
70 89 118 0
c gate 119 108 118 0
108 -119 0
118 -119 0
-108 -118 119 0
c gate 120 -108 -118 0
-108 -120 0
-118 -120 0
108 118 120 0
c gate 121 -119 -120 0
-119 -121 0
-120 -121 0
119 120 121 0
c gate 122 -108 -110 0
-108 -122 0
-110 -122 0
108 110 122 0
c gate 123 -111 -122 0
-111 -123 0
-122 -123 0
111 122 123 0
c gate 124 121 -123 0
121 -124 0
-123 -124 0
-121 123 124 0
c gate 125 -92 -124 0
-92 -125 0
-124 -125 0
92 124 125 0
c gate 126 -121 123 0
-121 -126 0
123 -126 0
121 -123 126 0
c gate 127 -124 -126 0
-124 -127 0
-126 -127 0
124 126 127 0
c gate 128 -122 -127 0
-122 -128 0
-127 -128 0
122 127 128 0
c gate 129 -125 -128 0
-125 -129 0
-128 -129 0
125 128 129 0
c gate 130 112 -119 0
112 -130 0
-119 -130 0
-112 119 130 0
c gate 131 -104 -105 0
-104 -131 0
-105 -131 0
104 105 131 0
c gate 132 -112 -131 0
-112 -132 0
-131 -132 0
112 131 132 0
c gate 133 -106 -119 0
-106 -133 0
-119 -133 0
106 119 133 0
c gate 134 131 -133 0
131 -134 0
-133 -134 0
-131 133 134 0
c gate 135 -132 -134 0
-132 -135 0
-134 -135 0
132 134 135 0
c gate 136 -130 135 0
-130 -136 0
135 -136 0
130 -135 136 0
c gate 137 -129 -136 0
-129 -137 0
-136 -137 0
129 136 137 0
c gate 138 -117 -137 0
-117 -138 0
-137 -138 0
117 137 138 0
c gate 139 117 137 0
117 -139 0
137 -139 0
-117 -137 139 0
c gate 140 -104 -134 0
-104 -140 0
-134 -140 0
104 134 140 0
c gate 141 103 -140 0
103 -141 0
-140 -141 0
-103 140 141 0
c gate 142 -103 140 0
-103 -142 0
140 -142 0
103 -140 142 0
c gate 143 -141 -142 0
-141 -143 0
-142 -143 0
141 142 143 0
c gate 144 -139 143 0
-139 -144 0
143 -144 0
139 -143 144 0
c gate 145 -138 -144 0
-138 -145 0
-144 -145 0
138 144 145 0
c gate 146 -100 145 0
-100 -146 0
145 -146 0
100 -145 146 0
c gate 147 -94 -146 0
-94 -147 0
-146 -147 0
94 146 147 0
c gate 148 10 -26 0
10 -148 0
-26 -148 0
-10 26 148 0
c gate 149 9 -25 0
9 -149 0
-25 -149 0
-9 25 149 0
c gate 150 -9 25 0
-9 -150 0
25 -150 0
9 -25 150 0
c gate 151 8 -24 0
8 -151 0
-24 -151 0
-8 24 151 0
c gate 152 -7 23 0
-7 -152 0
23 -152 0
7 -23 152 0
c gate 153 6 -22 0
6 -153 0
-22 -153 0
-6 22 153 0
c gate 154 -38 -153 0
-38 -154 0
-153 -154 0
38 153 154 0
c gate 155 -2 18 0
-2 -155 0
18 -155 0
2 -18 155 0
c gate 156 -1 17 0
-1 -156 0
17 -156 0
1 -17 156 0
c gate 157 -155 -156 0
-155 -157 0
-156 -157 0
155 156 157 0
c gate 158 2 -18 0
2 -158 0
-18 -158 0
-2 18 158 0
c gate 159 -47 -158 0
-47 -159 0
-158 -159 0
47 158 159 0
c gate 160 -157 159 0
-157 -160 0
159 -160 0
157 -159 160 0
c gate 161 -4 20 0
-4 -161 0
20 -161 0
4 -20 161 0
c gate 162 -46 -161 0
-46 -162 0
-161 -162 0
46 161 162 0
c gate 163 -160 162 0
-160 -163 0
162 -163 0
160 -162 163 0
c gate 164 5 -21 0
5 -164 0
-21 -164 0
-5 21 164 0
c gate 165 4 -20 0
4 -165 0
-20 -165 0
-4 20 165 0
c gate 166 -164 -165 0
-164 -166 0
-165 -166 0
164 165 166 0
c gate 167 -163 166 0
-163 -167 0
166 -167 0
163 -166 167 0
c gate 168 -5 21 0
-5 -168 0
21 -168 0
5 -21 168 0
c gate 169 -58 -168 0
-58 -169 0
-168 -169 0
58 168 169 0
c gate 170 -167 169 0
-167 -170 0
169 -170 0
167 -169 170 0
c gate 171 154 -170 0
154 -171 0
-170 -171 0
-154 170 171 0
c gate 172 -152 -171 0
-152 -172 0
-171 -172 0
152 171 172 0
c gate 173 -35 172 0
-35 -173 0
172 -173 0
35 -172 173 0
c gate 174 -151 -173 0
-151 -174 0
-173 -174 0
151 173 174 0
c gate 175 -150 -174 0
-150 -175 0
-174 -175 0
150 174 175 0
c gate 176 -149 -175 0
-149 -176 0
-175 -176 0
149 175 176 0
c gate 177 -79 -83 0
-79 -177 0
-83 -177 0
79 83 177 0
c gate 178 -176 -177 0
-176 -178 0
-177 -178 0
176 177 178 0
c gate 179 -148 -178 0
-148 -179 0
-178 -179 0
148 178 179 0
c gate 180 -69 -84 0
-69 -180 0
-84 -180 0
69 84 180 0
c gate 181 179 -180 0
179 -181 0
-180 -181 0
-179 180 181 0
c gate 182 -103 -108 0
-103 -182 0
-108 -182 0
103 108 182 0
c gate 183 -72 -131 0
-72 -183 0
-131 -183 0
72 131 183 0
c gate 184 -90 183 0
-90 -184 0
183 -184 0
90 -183 184 0
c gate 185 182 184 0
182 -185 0
184 -185 0
-182 -184 185 0
c gate 186 181 185 0
181 -186 0
185 -186 0
-181 -185 186 0
c gate 187 -179 180 0
-179 -187 0
180 -187 0
179 -180 187 0
c gate 188 -181 -187 0
-181 -188 0
-187 -188 0
181 187 188 0
c gate 189 -149 -151 0
-149 -189 0
-151 -189 0
149 151 189 0
c gate 190 -177 -189 0
-177 -190 0
-189 -190 0
177 189 190 0
c gate 191 -148 -190 0
-148 -191 0
-190 -191 0
148 190 191 0
c gate 192 180 -191 0
180 -192 0
-191 -192 0
-180 191 192 0
c gate 193 -188 -192 0
-188 -193 0
-192 -193 0
188 192 193 0
c gate 194 177 189 0
177 -194 0
189 -194 0
-177 -189 194 0
c gate 195 -190 -194 0
-190 -195 0
-194 -195 0
190 194 195 0
c gate 196 176 177 0
176 -196 0
177 -196 0
-176 -177 196 0
c gate 197 -178 -196 0
-178 -197 0
-196 -197 0
178 196 197 0
c gate 198 195 -197 0
195 -198 0
-197 -198 0
-195 197 198 0
c gate 199 -195 197 0
-195 -199 0
197 -199 0
195 -197 199 0
c gate 200 114 141 0
114 -200 0
141 -200 0
-114 -141 200 0
c gate 201 -170 -200 0
-170 -201 0
-200 -201 0
170 200 201 0
c gate 202 147 201 0
147 -202 0
201 -202 0
-147 -201 202 0
c gate 203 38 170 0
38 -203 0
170 -203 0
-38 -170 203 0
c gate 204 -101 -170 0
-101 -204 0
-170 -204 0
101 170 204 0
c gate 205 -141 204 0
-141 -205 0
204 -205 0
141 -204 205 0
c gate 206 115 205 0
115 -206 0
205 -206 0
-115 -205 206 0
c gate 207 -203 -206 0
-203 -207 0
-206 -207 0
203 206 207 0
c gate 208 -202 207 0
-202 -208 0
207 -208 0
202 -207 208 0
c gate 209 35 154 0
35 -209 0
154 -209 0
-35 -154 209 0
c gate 210 172 209 0
172 -210 0
209 -210 0
-172 -209 210 0
c gate 211 208 -210 0
208 -211 0
-210 -211 0
-208 210 211 0
c gate 212 -173 -211 0
-173 -212 0
-211 -212 0
173 211 212 0
c gate 213 -149 -150 0
-149 -213 0
-150 -213 0
149 150 213 0
c gate 214 173 -213 0
173 -214 0
-213 -214 0
-173 213 214 0
c gate 215 -212 -214 0
-212 -215 0
-214 -215 0
212 214 215 0
c gate 216 -199 215 0
-199 -216 0
215 -216 0
199 -215 216 0
c gate 217 -198 -216 0
-198 -217 0
-216 -217 0
198 216 217 0
c gate 218 -193 -217 0
-193 -218 0
-217 -218 0
193 217 218 0
c gate 219 179 192 0
179 -219 0
192 -219 0
-179 -192 219 0
c gate 220 -181 -219 0
-181 -220 0
-219 -220 0
181 219 220 0
c gate 221 -218 220 0
-218 -221 0
220 -221 0
218 -220 221 0
c gate 222 -186 -221 0
-186 -222 0
-221 -222 0
186 221 222 0
c gate 223 -147 222 0
-147 -223 0
222 -223 0
147 -222 223 0
c gate 224 43 49 0
43 -224 0
49 -224 0
-43 -49 224 0
c gate 225 65 -224 0
65 -225 0
-224 -225 0
-65 224 225 0
c gate 226 -98 -225 0
-98 -226 0
-225 -226 0
98 225 226 0
c gate 227 93 -226 0
93 -227 0
-226 -227 0
-93 226 227 0
c gate 228 145 -227 0
145 -228 0
-227 -228 0
-145 227 228 0
c gate 229 -222 -228 0
-222 -229 0
-228 -229 0
222 228 229 0
c gate 230 -223 -229 0
-223 -230 0
-229 -230 0
223 229 230 0
c PO
230 0
